Linux optc-02-14 4.15.0-58-generic #64-Ubuntu SMP Tue Aug 6 11:12:41 UTC 2019 x86_64 x86_64 x86_64 GNU/Linux

top - 23:36:30 up 1 day, 13:37,  0 users,  load average: 0,36, 0,80, 0,93
Tasks: 287 gesamt,   1 laufend, 149 schlafend,   0 gestoppt,   0 Zombie
%CPU(s):  6,1 be,  0,1 sy,  0,0 ni, 93,8 un,  0,0 wa,  0,0 hi,  0,0 si,  0,0 st
KiB Spch : 97514992 gesamt, 95560048 frei,   649896 belegt,  1305052 Puff/Cache
KiB Swap:  8388604 gesamt,  8388604 frei,        0 belegt. 96123264 verfü Spch 

  PID USER      PR  NI    VIRT    RES    SHR S  %CPU %MEM     ZEIT+ BEFEHL
11606 bzfhende  20   0   52664   4088   3352 R   4,2  0,0   0:00.01 top
    1 root      20   0  242068   9524   6792 S   0,0  0,0   0:12.17 systemd
    2 root      20   0       0      0      0 S   0,0  0,0   0:00.13 kthreadd
    3 root      20   0       0      0      0 I   0,0  0,0   0:02.30 kworker/0:0
    4 root       0 -20       0      0      0 I   0,0  0,0   0:00.00 kworker/0:+
    6 root      20   0       0      0      0 I   0,0  0,0   0:00.00 kworker/u3+
    7 root       0 -20       0      0      0 I   0,0  0,0   0:00.00 mm_percpu_+
    8 root      20   0       0      0      0 S   0,0  0,0   0:00.00 ksoftirqd/0

hard time limit: 04:10:00
hard mem limit: 55100

SLURM jobID: 2182676

@01 /nfs/optimi/kombadon/IP/coral/neos-1605061.mps.gz ===========
-----------------------------
Do 22. Aug 23:36:30 CEST 2019
-----------------------------
@03 1566509790
@05 7200
SCIP version 6.0.0 [precision: 8 byte] [memory: block] [mode: optimized] [LP solver: CPLEX 12.8.0.0] [GitHash: 41ab6e0014]
Copyright (C) 2002-2018 Konrad-Zuse-Zentrum fuer Informationstechnik Berlin (ZIB)

External codes: 
  Readline 7.0         GNU library for command line editing (gnu.org/s/readline)
  CPLEX 12.8.0.0       Linear Programming Solver developed by IBM (www.cplex.com)
  CppAD 20180000.0     Algorithmic Differentiation of C++ algorithms developed by B. Bell (www.coin-or.org/CppAD)
  ZLIB 1.2.11          General purpose compression library by J. Gailly and M. Adler (zlib.net)
  GMP 6.1.2            GNU Multiple Precision Arithmetic Library developed by T. Granlund (gmplib.org)
  bliss 0.73p          Computing Graph Automorphism Groups by T. Junttila and P. Kaski (http://www.tcs.hut.fi/Software/bliss/)

user parameter file <scip.set> not found - using default parameters

SCIP> 
SCIP> set load /home/optimi/bzfhende/opti/scip-opti/check/../settings/enable_treeeprofile.set
loaded parameter file </home/optimi/bzfhende/opti/scip-opti/check/../settings/enable_treeprofile.set>
SCIP> set misc referencevalue 19
misc/referencevalue = 19
SCIP> set limits time 7200
limits/time = 7200
SCIP> set limits nodes 2100000000
limits/nodes = 2100000000
SCIP> set limits memory 50000
limits/memory = 50000
SCIP> set lp advanced threads 1
lp/threads = 1
SCIP> set timing clocktype 1
timing/clocktype = 1
SCIP> set display freq 10000
display/freq = 10000
SCIP> set memory savefac 1.0
memory/savefac = 1
SCIP> set save /home/optimi/bzfhende/opti/scip-opti/check/treesize.estimation.jouurnal.3/bzfhende.MMMc.212_neos-1605061.scip.M640.enable_treeprofile.set
saved parameter file </home/optimi/bzfhende/opti/scip-opti/check/treesize.estimation.journal.3/bzfhende.MMMc.212_neos-1605061.scip.M640.enable_treeprofile.set>
SCIP> read /nfs/optimi/kombadon/IP/coral/neos-1605061.mps.gz

read problem </nfs/optimi/kombadon/IP/coral/neos-1605061.mps.gz>
============

original problem has 4111 variables (3570 bin, 0 int, 0 impl, 541 cont) and 3474 constraints
SCIP> display parameters

number of parameters = 2448
non-default parameter settings:
display/freq = 10000
limits/time = 7200
limits/nodes = 2100000000
limits/memory = 50000
lp/threads = 1
memory/savefac = 1
misc/referencevalue = 19
presolving/maxrestarts = 0
estimates/profile/enabled = TRUE
estimates/profile/maxdepthfactor = 10
estimates/profile/freq = 0

SCIP> optimize

Activating tree profile data collection
presolving:
(round 1, fast)       12 del vars, 0 del conss, 0 add conss, 324 chg bounds, 0 chg sides, 0 chg coeffs, 0 upgd conss, 0 impls, 563 clqs
(round 2, exhaustive) 12 del vars, 0 del conss, 0 add conss, 324 chg bounds, 0 chg sides, 0 chg coeffs, 610 upgd conss, 0 impls, 563 clqs
(round 3, medium)     12 del vars, 7 del conss, 28 add conss, 324 chg bounds, 28 chg sides, 308 chg coeffs, 610 upgd conss, 0 impls, 590 clqs
(round 4, exhaustive) 12 del vars, 35 del conss, 28 add conss, 324 chg bounds, 28 chg sides, 308 chg coeffs, 610 upgd conss, 0 impls, 590 clqs
(round 5, exhaustive) 84 del vars, 35 del conss, 28 add conss, 324 chg bounds, 28 chg sides, 308 chg coeffs, 610 upgd conss, 0 impls, 590 clqs
   (0.1s) probing: 51/3570 (1.4%) - 0 fixings, 0 aggregations, 0 implications, 0 bound changes
   (0.1s) probing aborted: 50/50 successive totally useless probings
presolving (6 rounds: 6 fast, 5 medium, 4 exhaustive):
 84 deleted vars, 35 deleted constraints, 28 added constraints, 324 tightened bounds, 0 added holes, 28 changed sides, 308 changed coefficients
 0 implications, 590 cliques
presolved problem has 4027 variables (3570 bin, 0 int, 0 impl, 457 cont) and 3467 constraints
     35 constraints of type <knapsack>
    563 constraints of type <setppc>
   2864 constraints of type <linear>
      5 constraints of type <logicor>
Presolving Time: 0.13

 time | node  | left  |LP iter|LP it/n| mem |mdpt |frac |vars |cons |cols |rows |cuts |confs|strbr|  dualbound   | primalbound  |  gap   
  5.3s|     1 |     0 | 16671 |     - |  69M|   0 | 716 |4027 |3512 |4027 |3467 |   0 |  44 |   0 | 6.150735e+00 |      --      |    Inf 
 11.6s|     1 |     0 | 36393 |     - |  69M|   0 | 716 |4027 |3512 |4027 |3467 |   0 |  44 |   0 | 6.150735e+00 |      --      |    Inf 
 14.9s|     1 |     0 | 46580 |     - |  74M|   0 | 722 |4027 |3522 |4027 |3469 |   2 |  54 |   0 | 8.150735e+00 |      --      |    Inf 
 14.9s|     1 |     0 | 46580 |     - |  74M|   0 | 722 |4027 |3524 |4027 |3469 |   2 |  56 |   0 | 8.150735e+00 |      --      |    Inf 
 15.0s|     1 |     0 | 46713 |     - |  74M|   0 | 688 |4027 |3524 |4027 |3470 |   3 |  56 |   0 | 8.150735e+00 |      --      |    Inf 
 18.3s|     1 |     0 | 57315 |     - |  76M|   0 | 727 |4027 |3534 |4027 |3473 |   6 |  66 |   0 | 8.366327e+00 |      --      |    Inf 
 22.2s|     1 |     0 | 70016 |     - |  76M|   0 | 726 |4027 |3535 |4027 |3478 |  11 |  67 |   0 | 8.374506e+00 |      --      |    Inf 
 25.6s|     1 |     0 | 80921 |     - |  77M|   0 | 748 |4027 |3544 |4027 |3482 |  15 |  76 |   0 | 8.374506e+00 |      --      |    Inf 
 29.2s|     1 |     0 | 92443 |     - |  77M|   0 | 749 |4027 |3546 |4027 |3486 |  19 |  78 |   0 | 8.374506e+00 |      --      |    Inf 
 32.8s|     1 |     0 |103392 |     - |  78M|   0 | 741 |4027 |3551 |4027 |3489 |  22 |  83 |   0 | 8.374506e+00 |      --      |    Inf 
 36.1s|     1 |     0 |114181 |     - |  78M|   0 | 749 |4027 |3552 |4027 |3497 |  30 |  84 |   0 | 8.380640e+00 |      --      |    Inf 
 39.8s|     1 |     0 |126026 |     - |  78M|   0 | 746 |4027 |3553 |4027 |3503 |  36 |  85 |   0 | 8.382685e+00 |      --      |    Inf 
 43.8s|     1 |     0 |138733 |     - |  79M|   0 | 779 |4027 |3553 |4027 |3509 |  42 |  85 |   0 | 8.397438e+00 |      --      |    Inf 
 47.7s|     1 |     0 |150713 |     - |  79M|   0 | 774 |4027 |3560 |4027 |3515 |  48 |  92 |   0 | 8.397438e+00 |      --      |    Inf 
 47.8s|     1 |     0 |150758 |     - |  80M|   0 | 757 |4027 |3560 |4027 |3516 |  49 |  92 |   0 | 8.397438e+00 |      --      |    Inf 
 time | node  | left  |LP iter|LP it/n| mem |mdpt |frac |vars |cons |cols |rows |cuts |confs|strbr|  dualbound   | primalbound  |  gap   
 51.4s|     1 |     0 |162492 |     - |  80M|   0 | 775 |4027 |3560 |4027 |3521 |  54 |  92 |   0 | 8.397438e+00 |      --      |    Inf 
 54.9s|     1 |     0 |172898 |     - |  80M|   0 | 765 |4027 |3561 |4027 |3527 |  62 |  93 |   0 | 8.397438e+00 |      --      |    Inf 
 55.0s|     1 |     0 |173008 |     - |  81M|   0 | 730 |4027 |3563 |4027 |3530 |  65 |  95 |   0 | 8.397438e+00 |      --      |    Inf 
 55.2s|     1 |     0 |173188 |     - |  81M|   0 | 702 |4027 |3568 |4027 |3532 |  67 | 100 |   0 | 8.397438e+00 |      --      |    Inf 
 55.3s|     1 |     0 |173221 |     - |  81M|   0 | 689 |4027 |3578 |4027 |3535 |  70 | 110 |   0 | 8.400005e+00 |      --      |    Inf 
 55.4s|     1 |     0 |173422 |     - |  82M|   0 | 685 |4027 |3579 |4027 |3537 |  72 | 111 |   0 | 8.400005e+00 |      --      |    Inf 
SCIP nodes: 1 Estimation: -1
 85.3s|     1 |     2 |173422 |     - |  82M|   0 | 685 |4027 |3579 |4027 |3537 |  72 | 111 |  21 | 8.400005e+00 |      --      |    Inf 
   (85.5s) symmetry computation started: requiring (bin +, int -, cont -), (fixed: bin -, int +, cont -)
   (85.5s) no symmetry present
SCIP nodes: 2 Estimation: -1
SCIP nodes: 4 Estimation: -1
SCIP nodes: 8 Estimation: -1
SCIP nodes: 16 Estimation: -1
SCIP nodes: 32 Estimation: -1
SCIP nodes: 64 Estimation: -1
SCIP nodes: 128 Estimation: -1
SCIP nodes: 256 Estimation: -1
SCIP nodes: 512 Estimation: 959.337
SCIP nodes: 1024 Estimation: 1004.12

SCIP Status        : solving was interrupted [time limit reached]
Solving Time (sec) : 7200.00
Solving Nodes      : 1921
Primal Bound       : +1.00000000000000e+20 (0 solutions)
Dual Bound         : +8.48899012386333e+00
Gap                : infinite

SCIP> display statistics

SCIP Status        : solving was interrupted [time limit reached]
Total Time         :    7200.04
  solving          :    7200.00
  presolving       :       0.13 (included in solving)
  reading          :       0.04
  copying          :       0.05 (4 #copies) (minimal 0.01, maximal 0.02, average 0.01)
Original Problem   :
  Problem name     : file
  Variables        : 4111 (3570 binary, 0 integer, 0 implicit integer, 541 continuous)
  Constraints      : 3474 initial, 3474 maximal
  Objective        : minimize, 1 non-zeros (abs.min = 1, abs.max = 1)
Presolved Problem  :
  Problem name     : t_file
  Variables        : 4027 (3570 binary, 0 integer, 0 implicit integer, 457 continuous)
  Constraints      : 3467 initial, 5145 maximal
  Objective        : minimize, 1 non-zeros (abs.min = 1, abs.max = 1)
Presolvers         :   ExecTime  SetupTime  Calls  FixedVars   AggrVars   ChgTypes  ChgBounds   AddHoles    DelCons    AddCons   ChgSides   ChgCoefs
  boundshift       :       0.00       0.00      0          0          0          0          0          0          0          0          0          0
  convertinttobin  :       0.00       0.00      0          0          0          0          0          0          0          0          0          0
  domcol           :       0.02       0.00      2         72          0          0          0          0          0          0          0          0
  dualagg          :       0.00       0.00      0          0          0          0          0          0          0          0          0          0
  dualcomp         :       0.00       0.00      2          0          0          0          0          0          0          0          0          0
  dualinfer        :       0.00       0.00      0          0          0          0          0          0          0          0          0          0
  gateextraction   :       0.00       0.00      3          0          0          0          0          0          0          0          0          0
  implics          :       0.00       0.00      5          0          0          0          0          0          0          0          0          0
  inttobinary      :       0.00       0.00      0          0          0          0          0          0          0          0          0          0
  qpkktref         :       0.00       0.00      0          0          0          0          0          0          0          0          0          0
  redvub           :       0.00       0.00      0          0          0          0          0          0          0          0          0          0
  sparsify         :       0.03       0.00      1          0          0          0          0          0          0          0          0          0
  stuffing         :       0.00       0.00      0          0          0          0          0          0          0          0          0          0
  symbreak         :       0.00       0.00      0          0          0          0          0          0          0          0          0          0
  symmetry         :       0.00       0.00      0          0          0          0          0          0          0          0          0          0
  trivial          :       0.00       0.00      6          0          0          0          0          0          0          0          0          0
  tworowbnd        :       0.00       0.00      0          0          0          0          0          0          0          0          0          0
  dualfix          :       0.00       0.00      6         12          0          0          0          0          0          0          0          0
  genvbounds       :       0.00       0.00      0          0          0          0          0          0          0          0          0          0
  orbitalfixing    :       0.00       0.00      0          0          0          0          0          0          0          0          0          0
  probing          :       0.02       0.00      1          0          0          0          0          0          0          0          0          0
  pseudoobj        :       0.00       0.00      0          0          0          0          0          0          0          0          0          0
  vbounds          :       0.00       0.00      1          0          0          0          0          0          0          0          0          0
  knapsack         :       0.01       0.00     11          0          0          0          0          0          7         28         28        308
  setppc           :       0.00       0.00     11          0          0          0          0          0         28          0          0          0
  linear           :       0.03       0.01      9          0          0          0        324          0          0          0          0          0
  logicor          :       0.00       0.00     10          0          0          0          0          0          0          0          0          0
  bounddisjunction :       0.00       0.00      0          0          0          0          0          0          0          0          0          0
  benders          :       0.00       0.00      0          0          0          0          0          0          0          0          0          0
  components       :       0.01       0.00      1          0          0          0          0          0          0          0          0          0
  root node        :          -          -      -        547          -          -        684          -          -          -          -          -
Constraints        :     Number  MaxNumber  #Separate #Propagate    #EnfoLP    #EnfoRelax  #EnfoPS    #Check   #ResProp    Cutoffs    DomReds       Cuts    Applied      Conss   Children
  benderslp        :          0          0          0          0       2009          0          0        389          0          0          0          0          0          0          0
  integral         :          0          0          0          0       2009          0          0        389          0          0        121          0          0          0       3842
  knapsack         :         35+        46         19     134707          0          0          0        384       8793         21      11683          0          0          0          0
  setppc           :        563+       566         19     134686          0          0          0        280     291766        121      65103          0          0          0          0
  linear           :       2864+      2865         19     134565          0          0          0          0       4503        112       2401          0          0          0          0
  logicor          :          5+      1134         19      21487          0          0          0          0        416         75         10          0          0          0          0
  bounddisjunction :          0+       584          0       8651          0          0          0          0          1          0          0          0          0          0          0
  benders          :          0          0          0          0          0          0          0          0          0          0          0          0          0          0          0
  countsols        :          0          0          0          0          0          0          0          0          0          0          0          0          0          0          0
  components       :          0          0          0          0          0          0          0          0          0          0          0          0          0          0          0
Constraint Timings :  TotalTime  SetupTime   Separate  Propagate     EnfoLP     EnfoPS     EnfoRelax   Check    ResProp    SB-Prop
  benderslp        :       0.00       0.00       0.00       0.00       0.00       0.00       0.00       0.00       0.00       0.00
  integral         :    1225.51       0.00       0.00       0.00    1225.51       0.00       0.00       0.00       0.00       0.00
  knapsack         :       0.15       0.00       0.00       0.08       0.00       0.00       0.00       0.00       0.00       0.07
  setppc           :       3.18       0.00       0.00       1.29       0.00       0.00       0.00       0.00       0.14       1.75
  linear           :       1.43       0.01       0.06       1.01       0.00       0.00       0.00       0.00       0.00       0.35
  logicor          :       0.20       0.00       0.00       0.13       0.00       0.00       0.00       0.00       0.01       0.06
  bounddisjunction :       0.06       0.00       0.00       0.05       0.00       0.00       0.00       0.00       0.00       0.01
  benders          :       0.00       0.00       0.00       0.00       0.00       0.00       0.00       0.00       0.00       0.00
  countsols        :       0.00       0.00       0.00       0.00       0.00       0.00       0.00       0.00       0.00       0.00
  components       :       0.05       0.00       0.00       0.04       0.00       0.00       0.00       0.00       0.00       0.01
Propagators        : #Propagate   #ResProp    Cutoffs    DomReds
  dualfix          :          2          0          0          0
  genvbounds       :          0          0          0          0
  nlobbt           :          0          0          0          0
  obbt             :          0          0          0          0
  orbitalfixing    :          1          0          0          0
  probing          :          0          0          0          0
  pseudoobj        :       7350          0          0          2
  redcost          :       4698          0          0         98
  rootredcost      :          1          0          0        110
  vbounds          :     136616          0          0          0
Propagator Timings :  TotalTime  SetupTime   Presolve  Propagate    ResProp    SB-Prop
  dualfix          :       0.00       0.00       0.00       0.00       0.00       0.00
  genvbounds       :       0.11       0.00       0.00       0.08       0.00       0.03
  nlobbt           :       0.00       0.00       0.00       0.00       0.00       0.00
  obbt             :       0.00       0.00       0.00       0.00       0.00       0.00
  orbitalfixing    :       0.11       0.00       0.00       0.10       0.00       0.01
  probing          :       0.02       0.00       0.02       0.00       0.00       0.00
  pseudoobj        :       0.13       0.00       0.00       0.10       0.00       0.03
  redcost          :       9.48       0.00       0.00       9.47       0.00       0.01
  rootredcost      :       0.08       0.00       0.00       0.05       0.00       0.03
  vbounds          :       0.10       0.00       0.00       0.09       0.00       0.01
Conflict Analysis  :       Time      Calls    Success    DomReds  Conflicts   Literals    Reconvs ReconvLits   Dualrays   Nonzeros   LP Iters   (pool size: [10000,10000])
  propagation      :       0.02        217        206          -       1394       71.8         23       26.0          -          -          -
  infeasible LP    :       0.02         33         33          -        184       51.0          4       33.0         33      162.8          0
  bound exceed. LP :       3.67        396        393          -      21707      537.0         28       13.5          0        0.0       6970
  strong branching :       0.00          0          0          -          0        0.0          0        0.0          -          -          0
  pseudo solution  :       0.00          0          0          -          0        0.0          0        0.0          -          -          -
  applied globally :       0.02          -          -          0       4476      184.6          -          -         33          -          -
  applied locally  :          -          -          -          0          0        0.0          -          -          0          -          -
Separators         :   ExecTime  SetupTime      Calls    Cutoffs    DomReds       Cuts    Applied      Conss
  cut pool         :       0.39                  1228          -          -       9051          -          -    (maximal pool size: 826)
  aggregation      :       2.02       0.00        526          0          0          0          0          0
  cgmip            :       0.00       0.00          0          0          0          0          0          0
  clique           :       0.09       0.00         19          0          0          0        134          0
  closecuts        :       0.00       0.00          0          0          0          0          0          0
  cmir             :       0.00       0.00          0          0          0          0          0          0
  convexproj       :       0.00       0.00          0          0          0          0          0          0
  disjunctive      :       0.00       0.00          0          0          0          0          0          0
  eccuts           :       0.00       0.00          0          0          0          0          0          0
  flowcover        :       0.00       0.00          0          0          0          0          0          0
  gauge            :       0.00       0.00          0          0          0          0          0          0
  gomory           :       9.14       0.00        484          0          0          0       1852          0
  impliedbounds    :       0.01       0.00        526          0          0          0          0          0
  intobj           :       0.00       0.00          0          0          0          0          0          0
  mcf              :       0.00       0.00          1          0          0          0          0          0
  oddcycle         :       0.00       0.00          0          0          0          0          0          0
  rapidlearning    :       0.00       0.00          0          0          0          0          0          0
  strongcg         :       0.68       0.00         33          0          0          0          0          0
  zerohalf         :       9.00       0.00        493          0          0         22        922          0
Pricers            :   ExecTime  SetupTime      Calls       Vars
  problem variables:       0.00          -          0          0
Branching Rules    :   ExecTime  SetupTime   BranchLP  BranchExt   BranchPS    Cutoffs    DomReds       Cuts      Conss   Children
  allfullstrong    :       0.00       0.00          0          0          0          0          0          0          0          0
  cloud            :       0.00       0.00          0          0          0          0          0          0          0          0
  distribution     :       0.00       0.00          0          0          0          0          0          0          0          0
  fullstrong       :       0.00       0.00          0          0          0          0          0          0          0          0
  inference        :       0.00       0.00          0          0          0          0          0          0          0          0
  leastinf         :       0.00       0.00          0          0          0          0          0          0          0          0
  lookahead        :       0.00       0.00          0          0          0          0          0          0          0          0
  mostinf          :       0.00       0.00          0          0          0          0          0          0          0          0
  multaggr         :       0.00       0.00          0          0          0          0          0          0          0          0
  nodereopt        :       0.00       0.00          0          0          0          0          0          0          0          0
  pscost           :       0.00       0.00          0          0          0          0          0          0          0          0
  random           :       0.00       0.00          0          0          0          0          0          0          0          0
  relpscost        :    1225.51       0.00       2009          0          0          0        121          0          0       3842
Primal Heuristics  :   ExecTime  SetupTime      Calls      Found       Best
  LP solutions     :       0.00          -          -          0          0
  relax solutions  :       0.00          -          -          0          0
  pseudo solutions :       0.00          -          -          0          0
  strong branching :       0.02          -          -          0          0
  actconsdiving    :       0.00       0.00          0          0          0
  alns             :      13.89       0.00          3          0          0
  bound            :       0.00       0.00          0          0          0
  clique           :       0.02       0.00          1          0          0
  coefdiving       :      72.11       0.00         49          0          0
  completesol      :       0.00       0.00          0          0          0
  conflictdiving   :       0.00       0.00          0          0          0
  crossover        :       0.00       0.00          0          0          0
  dins             :       0.00       0.00          0          0          0
  distributiondivin:     139.62       0.00         49          0          0
  dualval          :       0.00       0.00          0          0          0
  farkasdiving     :       0.00       0.00          0          0          0
  feaspump         :      95.80       0.00         23          0          0
  fixandinfer      :       0.00       0.00          0          0          0
  fracdiving       :      77.90       0.00         49          0          0
  gins             :       0.00       0.00          0          0          0
  guideddiving     :       0.00       0.00          0          0          0
  indicator        :       0.00       0.00          0          0          0
  intdiving        :       0.00       0.00          0          0          0
  intshifting      :       0.05       0.00         19          0          0
  linesearchdiving :      97.57       0.00         49          0          0
  localbranching   :       0.00       0.00          0          0          0
  locks            :       0.02       0.00          1          0          0
  lpface           :       9.99       0.00          1          0          0
  mpec             :       0.00       0.00          0          0          0
  multistart       :       0.00       0.00          0          0          0
  mutation         :       0.00       0.00          0          0          0
  nlpdiving        :       0.00       0.00          0          0          0
  objpscostdiving  :     152.91       0.00         25          0          0
  octane           :       0.00       0.00          0          0          0
  ofins            :       0.00       0.00          0          0          0
  oneopt           :       0.01       0.00          0          0          0
  proximity        :       0.00       0.00          0          0          0
  pscostdiving     :     234.01       0.00         49          0          0
  randrounding     :       0.37       0.00        400          0          0
  rens             :      17.25       0.00          1          0          0
  reoptsols        :       0.00       0.00          0          0          0
  repair           :       0.00       0.00          0          0          0
  rins             :       0.00       0.00          0          0          0
  rootsoldiving    :      59.91       0.00         14          0          0
  rounding         :       0.16       0.00        663          0          0
  shiftandpropagate:       0.01       0.00          1          0          0
  shifting         :       0.78       0.00        341          0          0
  simplerounding   :       0.00       0.00          0          0          0
  subnlp           :       0.00       0.00          0          0          0
  trivial          :       0.01       0.00          2          0          0
  trivialnegation  :       0.00       0.00          0          0          0
  trysol           :       0.01       0.00          0          0          0
  twoopt           :       0.00       0.00          0          0          0
  undercover       :       0.00       0.00          0          0          0
  vbounds          :       0.02       0.00          1          0          0
  veclendiving     :     105.04       0.00         49          0          0
  zeroobj          :       0.00       0.00          0          0          0
  zirounding       :       0.21       0.00       1000          0          0
  other solutions  :          -          -          -          0          -
Diving Statistics  :      Calls      Nodes   LP Iters Backtracks  Conflicts   MinDepth   MaxDepth   AvgDepth  RoundSols  NLeafSols  MinSolDpt  MaxSolDpt  AvgSolDpt
  actconsdiving    :          0          -          -          -          -          -          -          -          -          -          -          -          -
  coefdiving       :         49      21847     364000         13        200        281        876      472.1          0          -          -          -          -
  conflictdiving   :          0          -          -          -          -          -          -          -          -          -          -          -          -
  distributiondivin:         49       4897     701841         78       3316         35        405      126.6          0          -          -          -          -
  farkasdiving     :          0          -          -          -          -          -          -          -          -          -          -          -          -
  fracdiving       :         49      20548     409512         32       1445         91        800      445.3          0          -          -          -          -
  guideddiving     :          0          -          -          -          -          -          -          -          -          -          -          -          -
  linesearchdiving :         49       4391     525428        143       7623         36        308      113.6          0          -          -          -          -
  pscostdiving     :         49      16466    1146605         25       2514         95        732      361.6          0          -          -          -          -
  veclendiving     :         49       2501     566349        216       8075         53        101       71.4          0          -          -          -          -
Neighborhoods      :      Calls  SetupTime  SolveTime SolveNodes       Sols       Best       Exp3  EpsGreedy        UCB TgtFixRate  Opt  Inf Node Stal  Sol  Usr Othr Actv
  rens             :          3       0.06      13.80        159          0          0    0.00000   -1.00000    0.44160      0.787    0    1    0    2    0    0    0    1
  rins             :          0       0.00       0.00          0          0          0    0.00000   -1.00000    0.06194      0.900    0    0    0    0    0    0    0    1
  mutation         :          0       0.00       0.00          0          0          0    0.00000   -1.00000    0.06194      0.900    0    0    0    0    0    0    0    1
  localbranching   :          0       0.00       0.00          0          0          0    0.00000   -1.00000    0.06194      0.900    0    0    0    0    0    0    0    1
  crossover        :          0       0.00       0.00          0          0          0    0.00000   -1.00000    0.06194      0.900    0    0    0    0    0    0    0    1
  proximity        :          0       0.00       0.00          0          0          0    0.00000   -1.00000    0.06194      0.900    0    0    0    0    0    0    0    1
  zeroobjective    :          0       0.00       0.00          0          0          0    0.00000   -1.00000    0.06194      0.900    0    0    0    0    0    0    0    1
  dins             :          0       0.00       0.00          0          0          0    0.00000   -1.00000    0.06194      0.900    0    0    0    0    0    0    0    1
LP                 :       Time      Calls Iterations  Iter/call   Iter/sec  Time-0-It Calls-0-It    ItLimit
  primal LP        :      52.45        430          0       0.00       0.00      52.45        430
  dual LP          :    4809.61       2691   18750716    7225.71    3898.59       0.10         96
  lex dual LP      :       0.00          0          0       0.00          -
  barrier LP       :       0.00          0          0       0.00          -       0.00          0
  resolve instable :       0.00          0          0       0.00          -
  diving/probing LP:    1023.99       3704    4616423    1246.33    4508.27
  strong branching :    1217.74       7182    5434650     756.70    4462.90          -          -       9508
    (at root node) :          -         21      20886     994.57          -
  conflict analysis:       1.60        697       6970      10.00    4356.25
B&B Tree           :
  number of runs   :          1
  nodes            :       1921 (1921 internal, 0 leaves)
  feasible leaves  :          0
  infeas. leaves   :          0
  objective leaves :          0
  nodes (total)    :       1921 (1921 internal, 0 leaves)
  nodes left       :       1922
  max depth        :         52
  max depth (total):         52
  backtracks       :        363 (18.9%)
  early backtracks :        358 (98.6%)
  nodes exc. ref.  :         10 (0.5%)
  delayed cutoffs  :          0
  repropagations   :        500 (3847 domain reductions, 0 cutoffs)
  avg switch length:       6.89
  switching time   :      53.25
Root Node          :
  First LP value   : +6.15073529411776e+00
  First LP Iters   :      16671 (3288.17 Iter/sec)
  First LP Time    :       5.07
  Final Dual Bound : +8.40000488615454e+00
  Final Root Iters :     173422
  Root LP Estimate : +1.43743908481400e+02
Solution           :
  Solutions found  :          0 (0 improvements)
  Primal Bound     :          -
  Dual Bound       : +8.48899012386333e+00
  Gap              :   infinite
  Avg. Gap         :     100.00 % (720000.00 primal-dual integral)
  Tree Data        : 3843 nodes (1921 visited, 1921 inner, 0 leaves, 1922 open), progress: 0.0000
Tree Estimation    :       estim       value       trend  resolution      smooth
  wbe              :          -1           -           -           -           -
  tree profile     :        2216           -           -           -           -
  gap              :          -1     0.00000 999999999999999967336168804116691273849533185806555472917961779471295845921727862608739868455469056.00000           1 999999999999999967336168804116691273849533185806555472917961779471295845921727862608739868455469056
  progress         :          -1     0.00000 999999999999999967336168804116691273849533185806555472917961779471295845921727862608739868455469056.00000           1 999999999999999967336168804116691273849533185806555472917961779471295845921727862608739868455469056
  leaf-frequency   :          -1    -0.50000 999999999999999967336168804116691273849533185806555472917961779471295845921727862608739868455469056.00000           1 999999999999999967336168804116691273849533185806555472917961779471295845921727862608739868455469056
  ssg              :          -1     1.00000 999999999999999967336168804116691273849533185806555472917961779471295845921727862608739868455469056.00000           1 999999999999999967336168804116691273849533185806555472917961779471295845921727862608739868455469056
  open-nodes       :          -1     0.00000 999999999999999967336168804116691273849533185806555472917961779471295845921727862608739868455469056.00000           1 999999999999999967336168804116691273849533185806555472917961779471295845921727862608739868455469056

@04 1566516994
-----------------------------
Fr 23. Aug 01:36:34 CEST 2019
-----------------------------

=ready=
